\ Model Cl_50_Ins_7.lp
\ LP format - for model browsing. Use MPS format to capture full model detail.
Maximize
 
Subject To
 obj1: y[0] = 0
 obj2: y[1] = 0
 obj1_Exp: - y[0] + 98 x[0] + 97 x[1] + 95 x[2] + 90 x[3] + 89 x[4]
   + 88 x[5] + 87 x[6] + 85 x[7] + 81 x[8] + 81 x[9] + 80 x[10] + 79 x[11]
   + 79 x[12] + 74 x[13] + 71 x[14] + 69 x[15] + 69 x[16] + 69 x[17]
   + 59 x[18] + 56 x[19] + 56 x[20] + 53 x[21] + 52 x[22] + 51 x[23]
   + 51 x[24] + 45 x[25] + 45 x[26] + 44 x[27] + 40 x[28] + 38 x[29]
   + 35 x[30] + 30 x[31] + 29 x[32] + 29 x[33] + 28 x[34] + 27 x[35]
   + 26 x[36] + 24 x[37] + 24 x[38] + 21 x[39] + 19 x[40] + 19 x[41]
   + 18 x[42] + 15 x[43] + 15 x[44] + 14 x[45] + 9 x[46] + 8 x[47]
   + 5 x[48] + 4 x[49] = 0
 obj2_Exp: - y[1] + 40 x[0] + 34 x[1] + 43 x[2] + 74 x[3] + 5 x[4]
   + 32 x[5] + 47 x[6] + 16 x[7] + 98 x[8] + 21 x[9] + 89 x[10] + 92 x[11]
   + 88 x[12] + 22 x[13] + 41 x[14] + 68 x[15] + 11 x[16] + 89 x[17]
   + 62 x[18] + 70 x[19] + 35 x[20] + 45 x[21] + 43 x[22] + 49 x[23]
   + 73 x[24] + 71 x[25] + 73 x[26] + 47 x[27] + 72 x[28] + 8 x[29]
   + 40 x[30] + 91 x[31] + 37 x[32] + 55 x[33] + 91 x[34] + 61 x[35]
   + 48 x[36] + 2 x[37] + 24 x[38] + 24 x[39] + 23 x[40] + 74 x[41]
   + 72 x[42] + 52 x[43] + 27 x[44] + 41 x[45] + 96 x[46] + 72 x[47]
   + 58 x[48] + 2 x[49] = 0
 Budget: 108 x[0] + 107 x[1] + 105 x[2] + 100 x[3] + 99 x[4] + 98 x[5]
   + 97 x[6] + 95 x[7] + 91 x[8] + 91 x[9] + 90 x[10] + 89 x[11] + 89 x[12]
   + 84 x[13] + 81 x[14] + 79 x[15] + 79 x[16] + 79 x[17] + 69 x[18]
   + 66 x[19] + 66 x[20] + 63 x[21] + 62 x[22] + 61 x[23] + 61 x[24]
   + 55 x[25] + 55 x[26] + 54 x[27] + 50 x[28] + 48 x[29] + 45 x[30]
   + 40 x[31] + 39 x[32] + 39 x[33] + 38 x[34] + 37 x[35] + 36 x[36]
   + 34 x[37] + 34 x[38] + 31 x[39] + 29 x[40] + 29 x[41] + 28 x[42]
   + 25 x[43] + 25 x[44] + 24 x[45] + 19 x[46] + 18 x[47] + 15 x[48]
   + 14 x[49] <= 1183
Bounds
Binaries
 x[0] x[1] x[2] x[3] x[4] x[5] x[6] x[7] x[8] x[9] x[10] x[11] x[12] x[13]
 x[14] x[15] x[16] x[17] x[18] x[19] x[20] x[21] x[22] x[23] x[24] x[25]
 x[26] x[27] x[28] x[29] x[30] x[31] x[32] x[33] x[34] x[35] x[36] x[37]
 x[38] x[39] x[40] x[41] x[42] x[43] x[44] x[45] x[46] x[47] x[48] x[49]
Generals
 y[0] y[1]
End
